problem_generation/data/GISP/train/er_n=64_m=1219_p=0.60_SET2_setparam=100.00_alpha=0.50_321.lp
maximize
OBJ:100x0 + 100x1 + 100x2 + 100x3 + 100x4 + 100x5 + 100x6 + 100x7 + 100x8 + 100x9 + 100x10 + 100x11 + 100x12 + 100x13 + 100x14 + 100x15 + 100x16 + 100x17 + 100x18 + 100x19 + 100x20 + 100x21 + 100x22 + 100x23 + 100x24 + 100x25 + 100x26 + 100x27 + 100x28 + 100x29 + 100x30 + 100x31 + 100x32 + 100x33 + 100x34 + 100x35 + 100x36 + 100x37 + 100x38 + 100x39 + 100x40 + 100x41 + 100x42 + 100x43 + 100x44 + 100x45 + 100x46 + 100x47 + 100x48 + 100x49 + 100x50 + 100x51 + 100x52 + 100x53 + 100x54 + 100x55 + 100x56 + 100x57 + 100x58 + 100x59 + 100x60 + 100x61 + 100x62 + 100x63 - y15_21 - y7_17 - y26_30 - y36_62 - y47_62 - y15_39 - y26_39 - y18_44 - y9_63 - y21_37 - y0_23 - y10_27 - y33_38 - y41_51 - y2_32 - y44_47 - y25_43 - y2_59 - y43_60 - y3_33 - y14_42 - y14_51 - y7_12 - y17_44 - y7_30 - y9_49 - y5_60 - y6_34 - y21_41 - y29_54 - y29_63 - y40_63 - y25_29 - y10_58 - y51_59 - y3_28 - y13_60 - y36_43 - y36_52 - y36_61 - y5_55 - y6_38 - y6_47 - y40_49 - y21_45 - y12_63 - y2_49 - y32_50 - y24_46 - y14_23 - y24_55 - y1_62 - y36_38 - y17_34 - y28_34 - y5_41 - y17_43 - y28_43 - y9_39 - y47_56 - y5_50 - y6_15 - y9_48 - y28_61 - y21_22 - y6_33 - y6_42 - y6_51 - y39_48 - y10_21 - y39_57 - y2_17 - y54_55 - y10_30 - y20_62 - y25_28 - y23_58 - y24_32 - y3_9 - y32_45 - y16_37 - y1_48 - y13_50 - y24_50 - y16_55 - y36_42 - y28_47 - y17_56 - y6_19 - y28_56 - y9_52 - y50_53 - y6_28 - y50_62 - y10_16 - y31_48 - y10_25 - y12_44 - y39_61 - y31_57 - y54_59 - y62_63 - y4_49 - y12_62 - y24_27 - y3_4 - y13_36 - y24_36 - y13_45 - y24_45 - y32_58 - y35_45 - y43_58 - y24_54 - y16_50 - y13_63 - y35_63 - y16_59 - y46_60 - y57_60 - y36_37 - y5_31 - y17_42 - y9_47 - y5_58 - y27_55 - y21_30 - y8_60 - y19_60 - y42_62 - y0_56 - y2_16 - y12_48 - y23_48 - y54_63 - y32_35 - y16_18 - y13_31 - y4_62 - y16_27 - y13_40 - y13_49 - y24_49 - y5_8 - y35_58 - y16_54 - y9_24 - y38_60 - y17_37 - y5_44 - y7_63 - y30_55 - y0_51 - y23_34 - y2_11 - y4_30 - y39_60 - y23_43 - y20_56 - y31_56 - y12_52 - y13_17 - y23_61 - y13_26 - y32_39 - y1_33 - y16_31 - y38_46 - y46_59 - y9_19 - y26_53 - y26_62 - y18_58 - y27_36 - y6_13 - y8_32 - y19_32 - y30_41 - y42_43 - y50_56 - y11_37 - y8_50 - y19_50 - y27_63 - y0_46 - y19_59 - y20_24 - y42_61 - y20_33 - y39_46 - y20_42 - y23_38 - y31_51 - y12_47 - y1_10 - y23_47 - y23_56 - y13_21 - y53_57 - y13_30 - y24_30 - y16_26 - y22_60 - y34_62 - y45_62 - y56_62 - y5_16 - y49_50 - y57_63 - y26_57 - y8_27 - y30_36 - y27_49 - y30_45 - y11_41 - y42_56 - y19_63 - y11_59 - y39_41 - y41_60 - y20_37 - y52_60 - y23_33 - y12_42 - y1_5 - y53_61 - y14_60 - y37_62 - y15_34 - y26_34 - y5_11 - y46_49 - y7_39 - y18_39 - y8_13 - y26_61 - y38_63 - y0_18 - y11_18 - y30_31 - y8_40 - y8_49 - y30_49 - y20_32 - y31_32 - y23_37 - y22_41 - y1_18 - y22_50 - y45_52 - y3_46 - y14_46 - y22_59 - y45_61 - y14_55 - y26_29 - y5_6 - y7_34 - y15_47 - y38_49 - y15_56 - y0_4 - y18_52 - y8_26 - y11_22 - y29_58 - y30_35 - y21_63 - y0_40 - y60_63 - y4_10 - y44_46 - y33_55 - y3_32 - y34_47 - y3_41 - y14_41 - y3_50 - y22_63 - y7_20 - y18_20 - y26_33 - y18_29 - y15_51 - y8_12 - y18_56 - y19_21 - y48_57 - y11_17 - y40_62 - y0_35 - y25_37 - y4_14 - y33_50 - y52_63 - y33_59 - y44_59 - y2_53 - y3_36 - y14_36 - y45_51 - y14_45 - y3_54 - y15_19 - y7_33 - y40_48 - y48_61 - y21_44 - y11_21 - y21_53 - y4_9 - y52_58 - y25_41 - y3_13 - y10_61 - y22_26 - y44_63 - y51_62 - y3_22 - y37_42 - y36_46 - y15_23 - y18_28 - y28_60 - y7_37 - y6_41 - y40_43 - y29_52 - y10_29 - y41_44 - y2_25 - y33_49 - y3_8 - y10_56 - y2_52 - y32_62 - y13_58 - y3_44 - y14_44 - y15_18 - y7_14 - y55_63 - y28_46 - y17_55 - y28_55 - y21_25 - y0_2 - y21_34 - y29_47 - y21_61 - y2_20 - y25_31 - y10_42 - y33_44 - y2_38 - y25_40 - y32_48 - y32_57 - y13_53 - y13_62 - y24_62 - y35_62 - y28_41 - y5_48 - y17_59 - y6_31 - y29_33 - y21_29 - y6_40 - y40_51 - y2_6 - y39_55 - y10_28 - y25_26 - y31_60 - y32_34 - y24_39 - y32_52 - y43_52 - y14_25 - y13_57 - y35_57 - y16_62 - y17_27 - y36_40 - y5_34 - y17_36 - y17_45 - y9_41 - y5_52 - y17_54 - y28_54 - y9_50 - y10_14 - y39_50 - y31_46 - y10_23 - y2_19 - y10_32 - y23_51 - y13_25 - y32_38 - y13_34 - y3_11 - y24_43 - y35_43 - y32_56 - y43_56 - y13_52 - y13_61 - y9_18 - y5_29 - y28_31 - y36_44 - y17_49 - y28_49 - y42_51 - y6_39 - y20_41 - y2_14 - y20_50 - y12_46 - y23_46 - y4_42 - y12_55 - y4_51 - y1_27 - y4_60 - y35_38 - y32_51 - y43_51 - y35_47 - y16_43 - y24_56 - y5_15 - y1_63 - y46_53 - y16_61 - y5_24 - y9_22 - y49_58 - y6_7 - y6_16 - y58_63 - y50_59 - y8_53 - y19_53 - y30_53 - y0_49 - y0_58 - y10_13 - y12_32 - y39_58 - y12_41 - y23_41 - y20_54 - y4_37 - y31_54 - y31_63 - y12_59 - y13_24 - y23_59 - y16_20 - y32_46 - y35_42 - y16_38 - y5_19 - y38_53 - y28_30 - y26_60 - y49_62 - y19_39 - y50_54 - y8_48 - y19_48 - y27_61 - y61_63 - y8_57 - y42_59 - y12_27 - y23_27 - y2_4 - y20_40 - y39_53 - y13_19 - y4_50 - y1_26 - y13_28 - y16_24 - y45_60 - y1_35 - y35_37 - y56_60 - y46_52 - y9_12 - y26_55 - y38_57 - y49_57 - y18_60 - y27_47 - y27_56 - y19_52 - y0_48 - y11_48 - y8_61 - y19_61 - y60_62 - y0_57 - y11_57 - y12_31 - y23_31 - y20_44 - y31_44 - y12_40 - y4_36 - y1_12 - y13_14 - y45_46 - y4_54 - y1_30 - y3_58 - y14_58 - y46_47 - y15_41 - y26_50 - y38_52 - y38_61 - y49_61 - y8_29 - y11_25 - y8_38 - y19_38 - y30_38 - y8_56 - y19_56 - y12_17 - y4_22 - y44_58 - y1_7 - y34_41 - y45_50 - y16_23 - y56_59 - y14_53 - y26_27 - y15_36 - y5_13 - y46_51 - y26_54 - y38_56 - y15_63 - y27_28 - y0_11 - y18_59 - y8_24 - y27_37 - y11_38 - y0_47 - y41_57 - y4_17 - y4_26 - y25_58 - y22_34 - y37_41 - y45_54 - y14_48 - y37_50 - y3_57 - y14_57 - y18_27 - y37_49 - y26_40 - y15_49 - y15_58 - y26_58 - y7_54 - y8_19 - y8_28 - y40_60 - y19_37 - y21_56 - y0_33 - y11_42 - y4_12 - y33_48 - y52_61 - y10_55 - y25_53 - y1_6 - y34_40 - y22_56 - y56_58 - y59_60 - y15_35 - y0_1 - y18_49 - y29_46 - y40_46 - y8_23 - y30_32 - y21_51 - y0_28 - y6_62 - y21_60 - y4_7 - y33_43 - y25_39 - y4_16 - y33_61 - y44_61 - y25_57 - y14_20 - y14_29 - y37_40 - y22_51 - y14_47 - y7_8
 Subject to
C1: x0+x1-y0_1 <=1 
C2: x0+x2-y0_2 <=1 
C3: x0+x3 <=1 
C4: x0+x4-y0_4 <=1 
C5: x0+x8 <=1 
C6: x0+x11-y0_11 <=1 
C7: x0+x12 <=1 
C8: x0+x18-y0_18 <=1 
C9: x0+x19 <=1 
C10: x0+x21 <=1 
C11: x0+x23-y0_23 <=1 
C12: x0+x28-y0_28 <=1 
C13: x0+x29 <=1 
C14: x0+x33-y0_33 <=1 
C15: x0+x35-y0_35 <=1 
C16: x0+x36 <=1 
C17: x0+x39 <=1 
C18: x0+x40-y0_40 <=1 
C19: x0+x41 <=1 
C20: x0+x42 <=1 
C21: x0+x46-y0_46 <=1 
C22: x0+x47-y0_47 <=1 
C23: x0+x48-y0_48 <=1 
C24: x0+x49-y0_49 <=1 
C25: x0+x51-y0_51 <=1 
C26: x0+x52 <=1 
C27: x0+x54 <=1 
C28: x0+x56-y0_56 <=1 
C29: x0+x57-y0_57 <=1 
C30: x0+x58-y0_58 <=1 
C31: x0+x60 <=1 
C32: x0+x63 <=1 
C33: x1+x3 <=1 
C34: x1+x4 <=1 
C35: x1+x5-y1_5 <=1 
C36: x1+x6-y1_6 <=1 
C37: x1+x7-y1_7 <=1 
C38: x1+x8 <=1 
C39: x1+x10-y1_10 <=1 
C40: x1+x11 <=1 
C41: x1+x12-y1_12 <=1 
C42: x1+x15 <=1 
C43: x1+x16 <=1 
C44: x1+x17 <=1 
C45: x1+x18-y1_18 <=1 
C46: x1+x19 <=1 
C47: x1+x26-y1_26 <=1 
C48: x1+x27-y1_27 <=1 
C49: x1+x30-y1_30 <=1 
C50: x1+x31 <=1 
C51: x1+x32 <=1 
C52: x1+x33-y1_33 <=1 
C53: x1+x35-y1_35 <=1 
C54: x1+x37 <=1 
C55: x1+x38 <=1 
C56: x1+x39 <=1 
C57: x1+x45 <=1 
C58: x1+x48-y1_48 <=1 
C59: x1+x52 <=1 
C60: x1+x53 <=1 
C61: x1+x55 <=1 
C62: x1+x60 <=1 
C63: x1+x61 <=1 
C64: x1+x62-y1_62 <=1 
C65: x1+x63-y1_63 <=1 
C66: x2+x3 <=1 
C67: x2+x4-y2_4 <=1 
C68: x2+x6-y2_6 <=1 
C69: x2+x8 <=1 
C70: x2+x11-y2_11 <=1 
C71: x2+x13 <=1 
C72: x2+x14-y2_14 <=1 
C73: x2+x16-y2_16 <=1 
C74: x2+x17-y2_17 <=1 
C75: x2+x18 <=1 
C76: x2+x19-y2_19 <=1 
C77: x2+x20-y2_20 <=1 
C78: x2+x21 <=1 
C79: x2+x22 <=1 
C80: x2+x23 <=1 
C81: x2+x25-y2_25 <=1 
C82: x2+x27 <=1 
C83: x2+x28 <=1 
C84: x2+x29 <=1 
C85: x2+x30 <=1 
C86: x2+x32-y2_32 <=1 
C87: x2+x34 <=1 
C88: x2+x36 <=1 
C89: x2+x38-y2_38 <=1 
C90: x2+x39 <=1 
C91: x2+x43 <=1 
C92: x2+x45 <=1 
C93: x2+x47 <=1 
C94: x2+x49-y2_49 <=1 
C95: x2+x50 <=1 
C96: x2+x52-y2_52 <=1 
C97: x2+x53-y2_53 <=1 
C98: x2+x55 <=1 
C99: x2+x57 <=1 
C100: x2+x59-y2_59 <=1 
C101: x3+x4-y3_4 <=1 
C102: x3+x5 <=1 
C103: x3+x8-y3_8 <=1 
C104: x3+x9-y3_9 <=1 
C105: x3+x11-y3_11 <=1 
C106: x3+x12 <=1 
C107: x3+x13-y3_13 <=1 
C108: x3+x14 <=1 
C109: x3+x15 <=1 
C110: x3+x16 <=1 
C111: x3+x18 <=1 
C112: x3+x19 <=1 
C113: x3+x21 <=1 
C114: x3+x22-y3_22 <=1 
C115: x3+x24 <=1 
C116: x3+x26 <=1 
C117: x3+x28-y3_28 <=1 
C118: x3+x30 <=1 
C119: x3+x32-y3_32 <=1 
C120: x3+x33-y3_33 <=1 
C121: x3+x36-y3_36 <=1 
C122: x3+x38 <=1 
C123: x3+x39 <=1 
C124: x3+x41-y3_41 <=1 
C125: x3+x44-y3_44 <=1 
C126: x3+x46-y3_46 <=1 
C127: x3+x47 <=1 
C128: x3+x49 <=1 
C129: x3+x50-y3_50 <=1 
C130: x3+x53 <=1 
C131: x3+x54-y3_54 <=1 
C132: x3+x57-y3_57 <=1 
C133: x3+x58-y3_58 <=1 
C134: x3+x60 <=1 
C135: x3+x61 <=1 
C136: x3+x62 <=1 
C137: x4+x7-y4_7 <=1 
C138: x4+x8 <=1 
C139: x4+x9-y4_9 <=1 
C140: x4+x10-y4_10 <=1 
C141: x4+x11 <=1 
C142: x4+x12-y4_12 <=1 
C143: x4+x14-y4_14 <=1 
C144: x4+x16-y4_16 <=1 
C145: x4+x17-y4_17 <=1 
C146: x4+x18 <=1 
C147: x4+x22-y4_22 <=1 
C148: x4+x23 <=1 
C149: x4+x26-y4_26 <=1 
C150: x4+x28 <=1 
C151: x4+x29 <=1 
C152: x4+x30-y4_30 <=1 
C153: x4+x32 <=1 
C154: x4+x34 <=1 
C155: x4+x36-y4_36 <=1 
C156: x4+x37-y4_37 <=1 
C157: x4+x42-y4_42 <=1 
C158: x4+x43 <=1 
C159: x4+x46 <=1 
C160: x4+x48 <=1 
C161: x4+x49-y4_49 <=1 
C162: x4+x50-y4_50 <=1 
C163: x4+x51-y4_51 <=1 
C164: x4+x52 <=1 
C165: x4+x53 <=1 
C166: x4+x54-y4_54 <=1 
C167: x4+x55 <=1 
C168: x4+x60-y4_60 <=1 
C169: x4+x62-y4_62 <=1 
C170: x5+x6-y5_6 <=1 
C171: x5+x8-y5_8 <=1 
C172: x5+x9 <=1 
C173: x5+x10 <=1 
C174: x5+x11-y5_11 <=1 
C175: x5+x12 <=1 
C176: x5+x13-y5_13 <=1 
C177: x5+x14 <=1 
C178: x5+x15-y5_15 <=1 
C179: x5+x16-y5_16 <=1 
C180: x5+x17 <=1 
C181: x5+x19-y5_19 <=1 
C182: x5+x24-y5_24 <=1 
C183: x5+x25 <=1 
C184: x5+x29-y5_29 <=1 
C185: x5+x30 <=1 
C186: x5+x31-y5_31 <=1 
C187: x5+x33 <=1 
C188: x5+x34-y5_34 <=1 
C189: x5+x36 <=1 
C190: x5+x40 <=1 
C191: x5+x41-y5_41 <=1 
C192: x5+x42 <=1 
C193: x5+x44-y5_44 <=1 
C194: x5+x46 <=1 
C195: x5+x47 <=1 
C196: x5+x48-y5_48 <=1 
C197: x5+x49 <=1 
C198: x5+x50-y5_50 <=1 
C199: x5+x51 <=1 
C200: x5+x52-y5_52 <=1 
C201: x5+x53 <=1 
C202: x5+x54 <=1 
C203: x5+x55-y5_55 <=1 
C204: x5+x58-y5_58 <=1 
C205: x5+x60-y5_60 <=1 
C206: x5+x61 <=1 
C207: x5+x62 <=1 
C208: x6+x7-y6_7 <=1 
C209: x6+x10 <=1 
C210: x6+x13-y6_13 <=1 
C211: x6+x15-y6_15 <=1 
C212: x6+x16-y6_16 <=1 
C213: x6+x17 <=1 
C214: x6+x19-y6_19 <=1 
C215: x6+x21 <=1 
C216: x6+x23 <=1 
C217: x6+x24 <=1 
C218: x6+x25 <=1 
C219: x6+x26 <=1 
C220: x6+x27 <=1 
C221: x6+x28-y6_28 <=1 
C222: x6+x29 <=1 
C223: x6+x31-y6_31 <=1 
C224: x6+x33-y6_33 <=1 
C225: x6+x34-y6_34 <=1 
C226: x6+x36 <=1 
C227: x6+x38-y6_38 <=1 
C228: x6+x39-y6_39 <=1 
C229: x6+x40-y6_40 <=1 
C230: x6+x41-y6_41 <=1 
C231: x6+x42-y6_42 <=1 
C232: x6+x43 <=1 
C233: x6+x44 <=1 
C234: x6+x46 <=1 
C235: x6+x47-y6_47 <=1 
C236: x6+x49 <=1 
C237: x6+x51-y6_51 <=1 
C238: x6+x52 <=1 
C239: x6+x53 <=1 
C240: x6+x54 <=1 
C241: x6+x55 <=1 
C242: x6+x58 <=1 
C243: x6+x59 <=1 
C244: x6+x62-y6_62 <=1 
C245: x7+x8-y7_8 <=1 
C246: x7+x10 <=1 
C247: x7+x12-y7_12 <=1 
C248: x7+x14-y7_14 <=1 
C249: x7+x16 <=1 
C250: x7+x17-y7_17 <=1 
C251: x7+x20-y7_20 <=1 
C252: x7+x22 <=1 
C253: x7+x24 <=1 
C254: x7+x26 <=1 
C255: x7+x29 <=1 
C256: x7+x30-y7_30 <=1 
C257: x7+x31 <=1 
C258: x7+x32 <=1 
C259: x7+x33-y7_33 <=1 
C260: x7+x34-y7_34 <=1 
C261: x7+x35 <=1 
C262: x7+x36 <=1 
C263: x7+x37-y7_37 <=1 
C264: x7+x39-y7_39 <=1 
C265: x7+x42 <=1 
C266: x7+x44 <=1 
C267: x7+x46 <=1 
C268: x7+x47 <=1 
C269: x7+x49 <=1 
C270: x7+x50 <=1 
C271: x7+x52 <=1 
C272: x7+x54-y7_54 <=1 
C273: x7+x58 <=1 
C274: x7+x60 <=1 
C275: x7+x63-y7_63 <=1 
C276: x8+x9 <=1 
C277: x8+x11 <=1 
C278: x8+x12-y8_12 <=1 
C279: x8+x13-y8_13 <=1 
C280: x8+x16 <=1 
C281: x8+x19-y8_19 <=1 
C282: x8+x20 <=1 
C283: x8+x21 <=1 
C284: x8+x22 <=1 
C285: x8+x23-y8_23 <=1 
C286: x8+x24-y8_24 <=1 
C287: x8+x25 <=1 
C288: x8+x26-y8_26 <=1 
C289: x8+x27-y8_27 <=1 
C290: x8+x28-y8_28 <=1 
C291: x8+x29-y8_29 <=1 
C292: x8+x31 <=1 
C293: x8+x32-y8_32 <=1 
C294: x8+x33 <=1 
C295: x8+x34 <=1 
C296: x8+x36 <=1 
C297: x8+x37 <=1 
C298: x8+x38-y8_38 <=1 
C299: x8+x39 <=1 
C300: x8+x40-y8_40 <=1 
C301: x8+x41 <=1 
C302: x8+x45 <=1 
C303: x8+x48-y8_48 <=1 
C304: x8+x49-y8_49 <=1 
C305: x8+x50-y8_50 <=1 
C306: x8+x53-y8_53 <=1 
C307: x8+x54 <=1 
C308: x8+x56-y8_56 <=1 
C309: x8+x57-y8_57 <=1 
C310: x8+x58 <=1 
C311: x8+x60-y8_60 <=1 
C312: x8+x61-y8_61 <=1 
C313: x8+x62 <=1 
C314: x9+x11 <=1 
C315: x9+x12-y9_12 <=1 
C316: x9+x14 <=1 
C317: x9+x16 <=1 
C318: x9+x18-y9_18 <=1 
C319: x9+x19-y9_19 <=1 
C320: x9+x20 <=1 
C321: x9+x22-y9_22 <=1 
C322: x9+x24-y9_24 <=1 
C323: x9+x27 <=1 
C324: x9+x28 <=1 
C325: x9+x29 <=1 
C326: x9+x30 <=1 
C327: x9+x31 <=1 
C328: x9+x33 <=1 
C329: x9+x37 <=1 
C330: x9+x38 <=1 
C331: x9+x39-y9_39 <=1 
C332: x9+x40 <=1 
C333: x9+x41-y9_41 <=1 
C334: x9+x42 <=1 
C335: x9+x44 <=1 
C336: x9+x45 <=1 
C337: x9+x46 <=1 
C338: x9+x47-y9_47 <=1 
C339: x9+x48-y9_48 <=1 
C340: x9+x49-y9_49 <=1 
C341: x9+x50-y9_50 <=1 
C342: x9+x52-y9_52 <=1 
C343: x9+x53 <=1 
C344: x9+x55 <=1 
C345: x9+x56 <=1 
C346: x9+x57 <=1 
C347: x9+x58 <=1 
C348: x9+x59 <=1 
C349: x9+x60 <=1 
C350: x9+x61 <=1 
C351: x9+x63-y9_63 <=1 
C352: x10+x11 <=1 
C353: x10+x13-y10_13 <=1 
C354: x10+x14-y10_14 <=1 
C355: x10+x16-y10_16 <=1 
C356: x10+x19 <=1 
C357: x10+x20 <=1 
C358: x10+x21-y10_21 <=1 
C359: x10+x22 <=1 
C360: x10+x23-y10_23 <=1 
C361: x10+x25-y10_25 <=1 
C362: x10+x26 <=1 
C363: x10+x27-y10_27 <=1 
C364: x10+x28-y10_28 <=1 
C365: x10+x29-y10_29 <=1 
C366: x10+x30-y10_30 <=1 
C367: x10+x31 <=1 
C368: x10+x32-y10_32 <=1 
C369: x10+x34 <=1 
C370: x10+x35 <=1 
C371: x10+x38 <=1 
C372: x10+x39 <=1 
C373: x10+x42-y10_42 <=1 
C374: x10+x43 <=1 
C375: x10+x44 <=1 
C376: x10+x45 <=1 
C377: x10+x46 <=1 
C378: x10+x49 <=1 
C379: x10+x50 <=1 
C380: x10+x51 <=1 
C381: x10+x52 <=1 
C382: x10+x55-y10_55 <=1 
C383: x10+x56-y10_56 <=1 
C384: x10+x58-y10_58 <=1 
C385: x10+x61-y10_61 <=1 
C386: x10+x63 <=1 
C387: x11+x12 <=1 
C388: x11+x13 <=1 
C389: x11+x17-y11_17 <=1 
C390: x11+x18-y11_18 <=1 
C391: x11+x19 <=1 
C392: x11+x21-y11_21 <=1 
C393: x11+x22-y11_22 <=1 
C394: x11+x23 <=1 
C395: x11+x24 <=1 
C396: x11+x25-y11_25 <=1 
C397: x11+x27 <=1 
C398: x11+x31 <=1 
C399: x11+x32 <=1 
C400: x11+x35 <=1 
C401: x11+x37-y11_37 <=1 
C402: x11+x38-y11_38 <=1 
C403: x11+x41-y11_41 <=1 
C404: x11+x42-y11_42 <=1 
C405: x11+x45 <=1 
C406: x11+x46 <=1 
C407: x11+x47 <=1 
C408: x11+x48-y11_48 <=1 
C409: x11+x51 <=1 
C410: x11+x53 <=1 
C411: x11+x55 <=1 
C412: x11+x57-y11_57 <=1 
C413: x11+x59-y11_59 <=1 
C414: x11+x62 <=1 
C415: x12+x13 <=1 
C416: x12+x14 <=1 
C417: x12+x15 <=1 
C418: x12+x17-y12_17 <=1 
C419: x12+x18 <=1 
C420: x12+x19 <=1 
C421: x12+x21 <=1 
C422: x12+x22 <=1 
C423: x12+x23 <=1 
C424: x12+x24 <=1 
C425: x12+x26 <=1 
C426: x12+x27-y12_27 <=1 
C427: x12+x29 <=1 
C428: x12+x30 <=1 
C429: x12+x31-y12_31 <=1 
C430: x12+x32-y12_32 <=1 
C431: x12+x34 <=1 
C432: x12+x35 <=1 
C433: x12+x40-y12_40 <=1 
C434: x12+x41-y12_41 <=1 
C435: x12+x42-y12_42 <=1 
C436: x12+x43 <=1 
C437: x12+x44-y12_44 <=1 
C438: x12+x45 <=1 
C439: x12+x46-y12_46 <=1 
C440: x12+x47-y12_47 <=1 
C441: x12+x48-y12_48 <=1 
C442: x12+x52-y12_52 <=1 
C443: x12+x55-y12_55 <=1 
C444: x12+x56 <=1 
C445: x12+x59-y12_59 <=1 
C446: x12+x60 <=1 
C447: x12+x61 <=1 
C448: x12+x62-y12_62 <=1 
C449: x12+x63-y12_63 <=1 
C450: x13+x14-y13_14 <=1 
C451: x13+x15 <=1 
C452: x13+x16 <=1 
C453: x13+x17-y13_17 <=1 
C454: x13+x18 <=1 
C455: x13+x19-y13_19 <=1 
C456: x13+x20 <=1 
C457: x13+x21-y13_21 <=1 
C458: x13+x22 <=1 
C459: x13+x23 <=1 
C460: x13+x24-y13_24 <=1 
C461: x13+x25-y13_25 <=1 
C462: x13+x26-y13_26 <=1 
C463: x13+x28-y13_28 <=1 
C464: x13+x29 <=1 
C465: x13+x30-y13_30 <=1 
C466: x13+x31-y13_31 <=1 
C467: x13+x32 <=1 
C468: x13+x34-y13_34 <=1 
C469: x13+x35 <=1 
C470: x13+x36-y13_36 <=1 
C471: x13+x37 <=1 
C472: x13+x40-y13_40 <=1 
C473: x13+x41 <=1 
C474: x13+x42 <=1 
C475: x13+x44 <=1 
C476: x13+x45-y13_45 <=1 
C477: x13+x46 <=1 
C478: x13+x47 <=1 
C479: x13+x48 <=1 
C480: x13+x49-y13_49 <=1 
C481: x13+x50-y13_50 <=1 
C482: x13+x51 <=1 
C483: x13+x52-y13_52 <=1 
C484: x13+x53-y13_53 <=1 
C485: x13+x54 <=1 
C486: x13+x57-y13_57 <=1 
C487: x13+x58-y13_58 <=1 
C488: x13+x60-y13_60 <=1 
C489: x13+x61-y13_61 <=1 
C490: x13+x62-y13_62 <=1 
C491: x13+x63-y13_63 <=1 
C492: x14+x15 <=1 
C493: x14+x17 <=1 
C494: x14+x19 <=1 
C495: x14+x20-y14_20 <=1 
C496: x14+x21 <=1 
C497: x14+x22 <=1 
C498: x14+x23-y14_23 <=1 
C499: x14+x25-y14_25 <=1 
C500: x14+x26 <=1 
C501: x14+x27 <=1 
C502: x14+x29-y14_29 <=1 
C503: x14+x36-y14_36 <=1 
C504: x14+x37 <=1 
C505: x14+x38 <=1 
C506: x14+x39 <=1 
C507: x14+x41-y14_41 <=1 
C508: x14+x42-y14_42 <=1 
C509: x14+x43 <=1 
C510: x14+x44-y14_44 <=1 
C511: x14+x45-y14_45 <=1 
C512: x14+x46-y14_46 <=1 
C513: x14+x47-y14_47 <=1 
C514: x14+x48-y14_48 <=1 
C515: x14+x49 <=1 
C516: x14+x51-y14_51 <=1 
C517: x14+x53-y14_53 <=1 
C518: x14+x54 <=1 
C519: x14+x55-y14_55 <=1 
C520: x14+x56 <=1 
C521: x14+x57-y14_57 <=1 
C522: x14+x58-y14_58 <=1 
C523: x14+x60-y14_60 <=1 
C524: x14+x61 <=1 
C525: x15+x17 <=1 
C526: x15+x18-y15_18 <=1 
C527: x15+x19-y15_19 <=1 
C528: x15+x20 <=1 
C529: x15+x21-y15_21 <=1 
C530: x15+x23-y15_23 <=1 
C531: x15+x25 <=1 
C532: x15+x27 <=1 
C533: x15+x30 <=1 
C534: x15+x31 <=1 
C535: x15+x32 <=1 
C536: x15+x34-y15_34 <=1 
C537: x15+x35-y15_35 <=1 
C538: x15+x36-y15_36 <=1 
C539: x15+x39-y15_39 <=1 
C540: x15+x40 <=1 
C541: x15+x41-y15_41 <=1 
C542: x15+x44 <=1 
C543: x15+x45 <=1 
C544: x15+x46 <=1 
C545: x15+x47-y15_47 <=1 
C546: x15+x48 <=1 
C547: x15+x49-y15_49 <=1 
C548: x15+x50 <=1 
C549: x15+x51-y15_51 <=1 
C550: x15+x52 <=1 
C551: x15+x53 <=1 
C552: x15+x55 <=1 
C553: x15+x56-y15_56 <=1 
C554: x15+x57 <=1 
C555: x15+x58-y15_58 <=1 
C556: x15+x59 <=1 
C557: x15+x61 <=1 
C558: x15+x62 <=1 
C559: x15+x63-y15_63 <=1 
C560: x16+x17 <=1 
C561: x16+x18-y16_18 <=1 
C562: x16+x20-y16_20 <=1 
C563: x16+x23-y16_23 <=1 
C564: x16+x24-y16_24 <=1 
C565: x16+x25 <=1 
C566: x16+x26-y16_26 <=1 
C567: x16+x27-y16_27 <=1 
C568: x16+x28 <=1 
C569: x16+x31-y16_31 <=1 
C570: x16+x34 <=1 
C571: x16+x35 <=1 
C572: x16+x37-y16_37 <=1 
C573: x16+x38-y16_38 <=1 
C574: x16+x40 <=1 
C575: x16+x43-y16_43 <=1 
C576: x16+x48 <=1 
C577: x16+x50-y16_50 <=1 
C578: x16+x51 <=1 
C579: x16+x53 <=1 
C580: x16+x54-y16_54 <=1 
C581: x16+x55-y16_55 <=1 
C582: x16+x59-y16_59 <=1 
C583: x16+x61-y16_61 <=1 
C584: x16+x62-y16_62 <=1 
C585: x17+x19 <=1 
C586: x17+x20 <=1 
C587: x17+x22 <=1 
C588: x17+x27-y17_27 <=1 
C589: x17+x34-y17_34 <=1 
C590: x17+x36-y17_36 <=1 
C591: x17+x37-y17_37 <=1 
C592: x17+x39 <=1 
C593: x17+x42-y17_42 <=1 
C594: x17+x43-y17_43 <=1 
C595: x17+x44-y17_44 <=1 
C596: x17+x45-y17_45 <=1 
C597: x17+x46 <=1 
C598: x17+x47 <=1 
C599: x17+x48 <=1 
C600: x17+x49-y17_49 <=1 
C601: x17+x52 <=1 
C602: x17+x54-y17_54 <=1 
C603: x17+x55-y17_55 <=1 
C604: x17+x56-y17_56 <=1 
C605: x17+x59-y17_59 <=1 
C606: x17+x61 <=1 
C607: x17+x63 <=1 
C608: x18+x19 <=1 
C609: x18+x20-y18_20 <=1 
C610: x18+x24 <=1 
C611: x18+x27-y18_27 <=1 
C612: x18+x28-y18_28 <=1 
C613: x18+x29-y18_29 <=1 
C614: x18+x37 <=1 
C615: x18+x39-y18_39 <=1 
C616: x18+x40 <=1 
C617: x18+x43 <=1 
C618: x18+x44-y18_44 <=1 
C619: x18+x48 <=1 
C620: x18+x49-y18_49 <=1 
C621: x18+x52-y18_52 <=1 
C622: x18+x56-y18_56 <=1 
C623: x18+x57 <=1 
C624: x18+x58-y18_58 <=1 
C625: x18+x59-y18_59 <=1 
C626: x18+x60-y18_60 <=1 
C627: x18+x61 <=1 
C628: x19+x20 <=1 
C629: x19+x21-y19_21 <=1 
C630: x19+x28 <=1 
C631: x19+x29 <=1 
C632: x19+x31 <=1 
C633: x19+x32-y19_32 <=1 
C634: x19+x34 <=1 
C635: x19+x35 <=1 
C636: x19+x37-y19_37 <=1 
C637: x19+x38-y19_38 <=1 
C638: x19+x39-y19_39 <=1 
C639: x19+x41 <=1 
C640: x19+x44 <=1 
C641: x19+x48-y19_48 <=1 
C642: x19+x49 <=1 
C643: x19+x50-y19_50 <=1 
C644: x19+x52-y19_52 <=1 
C645: x19+x53-y19_53 <=1 
C646: x19+x54 <=1 
C647: x19+x56-y19_56 <=1 
C648: x19+x59-y19_59 <=1 
C649: x19+x60-y19_60 <=1 
C650: x19+x61-y19_61 <=1 
C651: x19+x62 <=1 
C652: x19+x63-y19_63 <=1 
C653: x20+x21 <=1 
C654: x20+x24-y20_24 <=1 
C655: x20+x27 <=1 
C656: x20+x29 <=1 
C657: x20+x31 <=1 
C658: x20+x32-y20_32 <=1 
C659: x20+x33-y20_33 <=1 
C660: x20+x34 <=1 
C661: x20+x37-y20_37 <=1 
C662: x20+x39 <=1 
C663: x20+x40-y20_40 <=1 
C664: x20+x41-y20_41 <=1 
C665: x20+x42-y20_42 <=1 
C666: x20+x43 <=1 
C667: x20+x44-y20_44 <=1 
C668: x20+x45 <=1 
C669: x20+x46 <=1 
C670: x20+x49 <=1 
C671: x20+x50-y20_50 <=1 
C672: x20+x51 <=1 
C673: x20+x52 <=1 
C674: x20+x54-y20_54 <=1 
C675: x20+x56-y20_56 <=1 
C676: x20+x59 <=1 
C677: x20+x62-y20_62 <=1 
C678: x21+x22-y21_22 <=1 
C679: x21+x23 <=1 
C680: x21+x25-y21_25 <=1 
C681: x21+x27 <=1 
C682: x21+x28 <=1 
C683: x21+x29-y21_29 <=1 
C684: x21+x30-y21_30 <=1 
C685: x21+x31 <=1 
C686: x21+x32 <=1 
C687: x21+x34-y21_34 <=1 
C688: x21+x35 <=1 
C689: x21+x37-y21_37 <=1 
C690: x21+x41-y21_41 <=1 
C691: x21+x44-y21_44 <=1 
C692: x21+x45-y21_45 <=1 
C693: x21+x46 <=1 
C694: x21+x49 <=1 
C695: x21+x51-y21_51 <=1 
C696: x21+x53-y21_53 <=1 
C697: x21+x54 <=1 
C698: x21+x56-y21_56 <=1 
C699: x21+x60-y21_60 <=1 
C700: x21+x61-y21_61 <=1 
C701: x21+x63-y21_63 <=1 
C702: x22+x26-y22_26 <=1 
C703: x22+x29 <=1 
C704: x22+x31 <=1 
C705: x22+x33 <=1 
C706: x22+x34-y22_34 <=1 
C707: x22+x37 <=1 
C708: x22+x40 <=1 
C709: x22+x41-y22_41 <=1 
C710: x22+x42 <=1 
C711: x22+x43 <=1 
C712: x22+x45 <=1 
C713: x22+x48 <=1 
C714: x22+x49 <=1 
C715: x22+x50-y22_50 <=1 
C716: x22+x51-y22_51 <=1 
C717: x22+x53 <=1 
C718: x22+x56-y22_56 <=1 
C719: x22+x59-y22_59 <=1 
C720: x22+x60-y22_60 <=1 
C721: x22+x63-y22_63 <=1 
C722: x23+x27-y23_27 <=1 
C723: x23+x28 <=1 
C724: x23+x29 <=1 
C725: x23+x31-y23_31 <=1 
C726: x23+x33-y23_33 <=1 
C727: x23+x34-y23_34 <=1 
C728: x23+x35 <=1 
C729: x23+x37-y23_37 <=1 
C730: x23+x38-y23_38 <=1 
C731: x23+x39 <=1 
C732: x23+x41-y23_41 <=1 
C733: x23+x42 <=1 
C734: x23+x43-y23_43 <=1 
C735: x23+x45 <=1 
C736: x23+x46-y23_46 <=1 
C737: x23+x47-y23_47 <=1 
C738: x23+x48-y23_48 <=1 
C739: x23+x50 <=1 
C740: x23+x51-y23_51 <=1 
C741: x23+x55 <=1 
C742: x23+x56-y23_56 <=1 
C743: x23+x58-y23_58 <=1 
C744: x23+x59-y23_59 <=1 
C745: x23+x60 <=1 
C746: x23+x61-y23_61 <=1 
C747: x23+x62 <=1 
C748: x23+x63 <=1 
C749: x24+x26 <=1 
C750: x24+x27-y24_27 <=1 
C751: x24+x29 <=1 
C752: x24+x30-y24_30 <=1 
C753: x24+x31 <=1 
C754: x24+x32-y24_32 <=1 
C755: x24+x35 <=1 
C756: x24+x36-y24_36 <=1 
C757: x24+x39-y24_39 <=1 
C758: x24+x43-y24_43 <=1 
C759: x24+x44 <=1 
C760: x24+x45-y24_45 <=1 
C761: x24+x46-y24_46 <=1 
C762: x24+x49-y24_49 <=1 
C763: x24+x50-y24_50 <=1 
C764: x24+x51 <=1 
C765: x24+x52 <=1 
C766: x24+x54-y24_54 <=1 
C767: x24+x55-y24_55 <=1 
C768: x24+x56-y24_56 <=1 
C769: x24+x58 <=1 
C770: x24+x60 <=1 
C771: x24+x61 <=1 
C772: x24+x62-y24_62 <=1 
C773: x25+x26-y25_26 <=1 
C774: x25+x28-y25_28 <=1 
C775: x25+x29-y25_29 <=1 
C776: x25+x31-y25_31 <=1 
C777: x25+x32 <=1 
C778: x25+x33 <=1 
C779: x25+x35 <=1 
C780: x25+x37-y25_37 <=1 
C781: x25+x38 <=1 
C782: x25+x39-y25_39 <=1 
C783: x25+x40-y25_40 <=1 
C784: x25+x41-y25_41 <=1 
C785: x25+x42 <=1 
C786: x25+x43-y25_43 <=1 
C787: x25+x51 <=1 
C788: x25+x53-y25_53 <=1 
C789: x25+x54 <=1 
C790: x25+x56 <=1 
C791: x25+x57-y25_57 <=1 
C792: x25+x58-y25_58 <=1 
C793: x25+x60 <=1 
C794: x25+x62 <=1 
C795: x25+x63 <=1 
C796: x26+x27-y26_27 <=1 
C797: x26+x28 <=1 
C798: x26+x29-y26_29 <=1 
C799: x26+x30-y26_30 <=1 
C800: x26+x31 <=1 
C801: x26+x33-y26_33 <=1 
C802: x26+x34-y26_34 <=1 
C803: x26+x35 <=1 
C804: x26+x37 <=1 
C805: x26+x38 <=1 
C806: x26+x39-y26_39 <=1 
C807: x26+x40-y26_40 <=1 
C808: x26+x46 <=1 
C809: x26+x50-y26_50 <=1 
C810: x26+x52 <=1 
C811: x26+x53-y26_53 <=1 
C812: x26+x54-y26_54 <=1 
C813: x26+x55-y26_55 <=1 
C814: x26+x57-y26_57 <=1 
C815: x26+x58-y26_58 <=1 
C816: x26+x59 <=1 
C817: x26+x60-y26_60 <=1 
C818: x26+x61-y26_61 <=1 
C819: x26+x62-y26_62 <=1 
C820: x26+x63 <=1 
C821: x27+x28-y27_28 <=1 
C822: x27+x29 <=1 
C823: x27+x31 <=1 
C824: x27+x32 <=1 
C825: x27+x35 <=1 
C826: x27+x36-y27_36 <=1 
C827: x27+x37-y27_37 <=1 
C828: x27+x39 <=1 
C829: x27+x42 <=1 
C830: x27+x43 <=1 
C831: x27+x44 <=1 
C832: x27+x46 <=1 
C833: x27+x47-y27_47 <=1 
C834: x27+x49-y27_49 <=1 
C835: x27+x52 <=1 
C836: x27+x53 <=1 
C837: x27+x54 <=1 
C838: x27+x55-y27_55 <=1 
C839: x27+x56-y27_56 <=1 
C840: x27+x61-y27_61 <=1 
C841: x27+x63-y27_63 <=1 
C842: x28+x29 <=1 
C843: x28+x30-y28_30 <=1 
C844: x28+x31-y28_31 <=1 
C845: x28+x32 <=1 
C846: x28+x34-y28_34 <=1 
C847: x28+x37 <=1 
C848: x28+x38 <=1 
C849: x28+x39 <=1 
C850: x28+x41-y28_41 <=1 
C851: x28+x43-y28_43 <=1 
C852: x28+x46-y28_46 <=1 
C853: x28+x47-y28_47 <=1 
C854: x28+x48 <=1 
C855: x28+x49-y28_49 <=1 
C856: x28+x52 <=1 
C857: x28+x54-y28_54 <=1 
C858: x28+x55-y28_55 <=1 
C859: x28+x56-y28_56 <=1 
C860: x28+x59 <=1 
C861: x28+x60-y28_60 <=1 
C862: x28+x61-y28_61 <=1 
C863: x29+x33-y29_33 <=1 
C864: x29+x35 <=1 
C865: x29+x36 <=1 
C866: x29+x39 <=1 
C867: x29+x40 <=1 
C868: x29+x42 <=1 
C869: x29+x43 <=1 
C870: x29+x44 <=1 
C871: x29+x46-y29_46 <=1 
C872: x29+x47-y29_47 <=1 
C873: x29+x49 <=1 
C874: x29+x50 <=1 
C875: x29+x52-y29_52 <=1 
C876: x29+x53 <=1 
C877: x29+x54-y29_54 <=1 
C878: x29+x58-y29_58 <=1 
C879: x29+x60 <=1 
C880: x29+x63-y29_63 <=1 
C881: x30+x31-y30_31 <=1 
C882: x30+x32-y30_32 <=1 
C883: x30+x34 <=1 
C884: x30+x35-y30_35 <=1 
C885: x30+x36-y30_36 <=1 
C886: x30+x38-y30_38 <=1 
C887: x30+x39 <=1 
C888: x30+x40 <=1 
C889: x30+x41-y30_41 <=1 
C890: x30+x44 <=1 
C891: x30+x45-y30_45 <=1 
C892: x30+x46 <=1 
C893: x30+x48 <=1 
C894: x30+x49-y30_49 <=1 
C895: x30+x50 <=1 
C896: x30+x52 <=1 
C897: x30+x53-y30_53 <=1 
C898: x30+x55-y30_55 <=1 
C899: x30+x63 <=1 
C900: x31+x32-y31_32 <=1 
C901: x31+x34 <=1 
C902: x31+x43 <=1 
C903: x31+x44-y31_44 <=1 
C904: x31+x46-y31_46 <=1 
C905: x31+x47 <=1 
C906: x31+x48-y31_48 <=1 
C907: x31+x49 <=1 
C908: x31+x50 <=1 
C909: x31+x51-y31_51 <=1 
C910: x31+x53 <=1 
C911: x31+x54-y31_54 <=1 
C912: x31+x56-y31_56 <=1 
C913: x31+x57-y31_57 <=1 
C914: x31+x58 <=1 
C915: x31+x59 <=1 
C916: x31+x60-y31_60 <=1 
C917: x31+x63-y31_63 <=1 
C918: x32+x33 <=1 
C919: x32+x34-y32_34 <=1 
C920: x32+x35-y32_35 <=1 
C921: x32+x38-y32_38 <=1 
C922: x32+x39-y32_39 <=1 
C923: x32+x40 <=1 
C924: x32+x43 <=1 
C925: x32+x44 <=1 
C926: x32+x45-y32_45 <=1 
C927: x32+x46-y32_46 <=1 
C928: x32+x48-y32_48 <=1 
C929: x32+x49 <=1 
C930: x32+x50-y32_50 <=1 
C931: x32+x51-y32_51 <=1 
C932: x32+x52-y32_52 <=1 
C933: x32+x54 <=1 
C934: x32+x56-y32_56 <=1 
C935: x32+x57-y32_57 <=1 
C936: x32+x58-y32_58 <=1 
C937: x32+x59 <=1 
C938: x32+x62-y32_62 <=1 
C939: x32+x63 <=1 
C940: x33+x34 <=1 
C941: x33+x38-y33_38 <=1 
C942: x33+x43-y33_43 <=1 
C943: x33+x44-y33_44 <=1 
C944: x33+x46 <=1 
C945: x33+x47 <=1 
C946: x33+x48-y33_48 <=1 
C947: x33+x49-y33_49 <=1 
C948: x33+x50-y33_50 <=1 
C949: x33+x52 <=1 
C950: x33+x55-y33_55 <=1 
C951: x33+x56 <=1 
C952: x33+x59-y33_59 <=1 
C953: x33+x61-y33_61 <=1 
C954: x33+x63 <=1 
C955: x34+x39 <=1 
C956: x34+x40-y34_40 <=1 
C957: x34+x41-y34_41 <=1 
C958: x34+x42 <=1 
C959: x34+x43 <=1 
C960: x34+x47-y34_47 <=1 
C961: x34+x49 <=1 
C962: x34+x52 <=1 
C963: x34+x53 <=1 
C964: x34+x55 <=1 
C965: x34+x56 <=1 
C966: x34+x58 <=1 
C967: x34+x62-y34_62 <=1 
C968: x35+x37-y35_37 <=1 
C969: x35+x38-y35_38 <=1 
C970: x35+x40 <=1 
C971: x35+x42-y35_42 <=1 
C972: x35+x43-y35_43 <=1 
C973: x35+x45-y35_45 <=1 
C974: x35+x47-y35_47 <=1 
C975: x35+x49 <=1 
C976: x35+x50 <=1 
C977: x35+x51 <=1 
C978: x35+x52 <=1 
C979: x35+x53 <=1 
C980: x35+x56 <=1 
C981: x35+x57-y35_57 <=1 
C982: x35+x58-y35_58 <=1 
C983: x35+x62-y35_62 <=1 
C984: x35+x63-y35_63 <=1 
C985: x36+x37-y36_37 <=1 
C986: x36+x38-y36_38 <=1 
C987: x36+x40-y36_40 <=1 
C988: x36+x42-y36_42 <=1 
C989: x36+x43-y36_43 <=1 
C990: x36+x44-y36_44 <=1 
C991: x36+x45 <=1 
C992: x36+x46-y36_46 <=1 
C993: x36+x47 <=1 
C994: x36+x49 <=1 
C995: x36+x52-y36_52 <=1 
C996: x36+x53 <=1 
C997: x36+x54 <=1 
C998: x36+x56 <=1 
C999: x36+x61-y36_61 <=1 
C1000: x36+x62-y36_62 <=1 
C1001: x37+x40-y37_40 <=1 
C1002: x37+x41-y37_41 <=1 
C1003: x37+x42-y37_42 <=1 
C1004: x37+x44 <=1 
C1005: x37+x45 <=1 
C1006: x37+x46 <=1 
C1007: x37+x47 <=1 
C1008: x37+x48 <=1 
C1009: x37+x49-y37_49 <=1 
C1010: x37+x50-y37_50 <=1 
C1011: x37+x51 <=1 
C1012: x37+x54 <=1 
C1013: x37+x56 <=1 
C1014: x37+x58 <=1 
C1015: x37+x59 <=1 
C1016: x37+x62-y37_62 <=1 
C1017: x37+x63 <=1 
C1018: x38+x40 <=1 
C1019: x38+x41 <=1 
C1020: x38+x43 <=1 
C1021: x38+x44 <=1 
C1022: x38+x46-y38_46 <=1 
C1023: x38+x47 <=1 
C1024: x38+x49-y38_49 <=1 
C1025: x38+x50 <=1 
C1026: x38+x51 <=1 
C1027: x38+x52-y38_52 <=1 
C1028: x38+x53-y38_53 <=1 
C1029: x38+x54 <=1 
C1030: x38+x56-y38_56 <=1 
C1031: x38+x57-y38_57 <=1 
C1032: x38+x60-y38_60 <=1 
C1033: x38+x61-y38_61 <=1 
C1034: x38+x62 <=1 
C1035: x38+x63-y38_63 <=1 
C1036: x39+x41-y39_41 <=1 
C1037: x39+x43 <=1 
C1038: x39+x44 <=1 
C1039: x39+x46-y39_46 <=1 
C1040: x39+x47 <=1 
C1041: x39+x48-y39_48 <=1 
C1042: x39+x49 <=1 
C1043: x39+x50-y39_50 <=1 
C1044: x39+x53-y39_53 <=1 
C1045: x39+x55-y39_55 <=1 
C1046: x39+x56 <=1 
C1047: x39+x57-y39_57 <=1 
C1048: x39+x58-y39_58 <=1 
C1049: x39+x60-y39_60 <=1 
C1050: x39+x61-y39_61 <=1 
C1051: x40+x42 <=1 
C1052: x40+x43-y40_43 <=1 
C1053: x40+x45 <=1 
C1054: x40+x46-y40_46 <=1 
C1055: x40+x48-y40_48 <=1 
C1056: x40+x49-y40_49 <=1 
C1057: x40+x51-y40_51 <=1 
C1058: x40+x54 <=1 
C1059: x40+x56 <=1 
C1060: x40+x59 <=1 
C1061: x40+x60-y40_60 <=1 
C1062: x40+x61 <=1 
C1063: x40+x62-y40_62 <=1 
C1064: x40+x63-y40_63 <=1 
C1065: x41+x43 <=1 
C1066: x41+x44-y41_44 <=1 
C1067: x41+x45 <=1 
C1068: x41+x50 <=1 
C1069: x41+x51-y41_51 <=1 
C1070: x41+x52 <=1 
C1071: x41+x56 <=1 
C1072: x41+x57-y41_57 <=1 
C1073: x41+x58 <=1 
C1074: x41+x59 <=1 
C1075: x41+x60-y41_60 <=1 
C1076: x42+x43-y42_43 <=1 
C1077: x42+x45 <=1 
C1078: x42+x46 <=1 
C1079: x42+x47 <=1 
C1080: x42+x50 <=1 
C1081: x42+x51-y42_51 <=1 
C1082: x42+x52 <=1 
C1083: x42+x53 <=1 
C1084: x42+x54 <=1 
C1085: x42+x55 <=1 
C1086: x42+x56-y42_56 <=1 
C1087: x42+x59-y42_59 <=1 
C1088: x42+x61-y42_61 <=1 
C1089: x42+x62-y42_62 <=1 
C1090: x43+x45 <=1 
C1091: x43+x46 <=1 
C1092: x43+x47 <=1 
C1093: x43+x48 <=1 
C1094: x43+x50 <=1 
C1095: x43+x51-y43_51 <=1 
C1096: x43+x52-y43_52 <=1 
C1097: x43+x55 <=1 
C1098: x43+x56-y43_56 <=1 
C1099: x43+x58-y43_58 <=1 
C1100: x43+x59 <=1 
C1101: x43+x60-y43_60 <=1 
C1102: x43+x63 <=1 
C1103: x44+x46-y44_46 <=1 
C1104: x44+x47-y44_47 <=1 
C1105: x44+x52 <=1 
C1106: x44+x53 <=1 
C1107: x44+x55 <=1 
C1108: x44+x58-y44_58 <=1 
C1109: x44+x59-y44_59 <=1 
C1110: x44+x61-y44_61 <=1 
C1111: x44+x62 <=1 
C1112: x44+x63-y44_63 <=1 
C1113: x45+x46-y45_46 <=1 
C1114: x45+x47 <=1 
C1115: x45+x49 <=1 
C1116: x45+x50-y45_50 <=1 
C1117: x45+x51-y45_51 <=1 
C1118: x45+x52-y45_52 <=1 
C1119: x45+x53 <=1 
C1120: x45+x54-y45_54 <=1 
C1121: x45+x56 <=1 
C1122: x45+x59 <=1 
C1123: x45+x60-y45_60 <=1 
C1124: x45+x61-y45_61 <=1 
C1125: x45+x62-y45_62 <=1 
C1126: x45+x63 <=1 
C1127: x46+x47-y46_47 <=1 
C1128: x46+x48 <=1 
C1129: x46+x49-y46_49 <=1 
C1130: x46+x51-y46_51 <=1 
C1131: x46+x52-y46_52 <=1 
C1132: x46+x53-y46_53 <=1 
C1133: x46+x56 <=1 
C1134: x46+x57 <=1 
C1135: x46+x58 <=1 
C1136: x46+x59-y46_59 <=1 
C1137: x46+x60-y46_60 <=1 
C1138: x47+x52 <=1 
C1139: x47+x53 <=1 
C1140: x47+x56-y47_56 <=1 
C1141: x47+x57 <=1 
C1142: x47+x58 <=1 
C1143: x47+x61 <=1 
C1144: x47+x62-y47_62 <=1 
C1145: x47+x63 <=1 
C1146: x48+x49 <=1 
C1147: x48+x51 <=1 
C1148: x48+x52 <=1 
C1149: x48+x53 <=1 
C1150: x48+x54 <=1 
C1151: x48+x55 <=1 
C1152: x48+x57-y48_57 <=1 
C1153: x48+x59 <=1 
C1154: x48+x60 <=1 
C1155: x48+x61-y48_61 <=1 
C1156: x48+x62 <=1 
C1157: x49+x50-y49_50 <=1 
C1158: x49+x52 <=1 
C1159: x49+x53 <=1 
C1160: x49+x54 <=1 
C1161: x49+x57-y49_57 <=1 
C1162: x49+x58-y49_58 <=1 
C1163: x49+x59 <=1 
C1164: x49+x60 <=1 
C1165: x49+x61-y49_61 <=1 
C1166: x49+x62-y49_62 <=1 
C1167: x49+x63 <=1 
C1168: x50+x52 <=1 
C1169: x50+x53-y50_53 <=1 
C1170: x50+x54-y50_54 <=1 
C1171: x50+x56-y50_56 <=1 
C1172: x50+x58 <=1 
C1173: x50+x59-y50_59 <=1 
C1174: x50+x60 <=1 
C1175: x50+x62-y50_62 <=1 
C1176: x51+x52 <=1 
C1177: x51+x54 <=1 
C1178: x51+x59-y51_59 <=1 
C1179: x51+x62-y51_62 <=1 
C1180: x52+x53 <=1 
C1181: x52+x58-y52_58 <=1 
C1182: x52+x60-y52_60 <=1 
C1183: x52+x61-y52_61 <=1 
C1184: x52+x63-y52_63 <=1 
C1185: x53+x55 <=1 
C1186: x53+x57-y53_57 <=1 
C1187: x53+x60 <=1 
C1188: x53+x61-y53_61 <=1 
C1189: x54+x55-y54_55 <=1 
C1190: x54+x59-y54_59 <=1 
C1191: x54+x60 <=1 
C1192: x54+x61 <=1 
C1193: x54+x62 <=1 
C1194: x54+x63-y54_63 <=1 
C1195: x55+x56 <=1 
C1196: x55+x58 <=1 
C1197: x55+x60 <=1 
C1198: x55+x61 <=1 
C1199: x55+x62 <=1 
C1200: x55+x63-y55_63 <=1 
C1201: x56+x57 <=1 
C1202: x56+x58-y56_58 <=1 
C1203: x56+x59-y56_59 <=1 
C1204: x56+x60-y56_60 <=1 
C1205: x56+x61 <=1 
C1206: x56+x62-y56_62 <=1 
C1207: x57+x58 <=1 
C1208: x57+x60-y57_60 <=1 
C1209: x57+x61 <=1 
C1210: x57+x63-y57_63 <=1 
C1211: x58+x59 <=1 
C1212: x58+x61 <=1 
C1213: x58+x63-y58_63 <=1 
C1214: x59+x60-y59_60 <=1 
C1215: x60+x61 <=1 
C1216: x60+x62-y60_62 <=1 
C1217: x60+x63-y60_63 <=1 
C1218: x61+x63-y61_63 <=1 
C1219: x62+x63-y62_63 <=1 

binary
x0
x1
x2
x3
x4
x5
x6
x7
x8
x9
x10
x11
x12
x13
x14
x15
x16
x17
x18
x19
x20
x21
x22
x23
x24
x25
x26
x27
x28
x29
x30
x31
x32
x33
x34
x35
x36
x37
x38
x39
x40
x41
x42
x43
x44
x45
x46
x47
x48
x49
x50
x51
x52
x53
x54
x55
x56
x57
x58
x59
x60
x61
x62
x63
