problem_generation/data/GISP/train/er_n=64_m=1219_p=0.60_SET2_setparam=100.00_alpha=0.50_321.sol
objective value:                                 1271
x4                                                  1 	(obj:100)
x10                                                 1 	(obj:100)
x17                                                 1 	(obj:100)
x21                                                 1 	(obj:100)
x24                                                 1 	(obj:100)
x30                                                 1 	(obj:100)
x33                                                 1 	(obj:100)
x36                                                 1 	(obj:100)
x37                                                 1 	(obj:100)
x41                                                 1 	(obj:100)
x42                                                 1 	(obj:100)
x57                                                 1 	(obj:100)
x62                                                 1 	(obj:100)
y36_62                                              1 	(obj:-1)
y21_37                                              1 	(obj:-1)
y21_41                                              1 	(obj:-1)
y10_21                                              1 	(obj:-1)
y10_30                                              1 	(obj:-1)
y36_42                                              1 	(obj:-1)
y24_36                                              1 	(obj:-1)
y36_37                                              1 	(obj:-1)
y17_42                                              1 	(obj:-1)
y21_30                                              1 	(obj:-1)
y42_62                                              1 	(obj:-1)
y4_62                                               1 	(obj:-1)
y17_37                                              1 	(obj:-1)
y4_30                                               1 	(obj:-1)
y30_41                                              1 	(obj:-1)
y24_30                                              1 	(obj:-1)
y30_36                                              1 	(obj:-1)
y37_62                                              1 	(obj:-1)
y4_10                                               1 	(obj:-1)
y37_42                                              1 	(obj:-1)
y10_42                                              1 	(obj:-1)
y24_62                                              1 	(obj:-1)
y17_36                                              1 	(obj:-1)
y4_42                                               1 	(obj:-1)
y4_37                                               1 	(obj:-1)
y4_36                                               1 	(obj:-1)
y41_57                                              1 	(obj:-1)
y4_17                                               1 	(obj:-1)
y37_41                                              1 	(obj:-1)
